c 
c U(n,d) graph
c graph gen seed     : 455
c number of vertices : 70
c max number of edges: 2415
c Euclidean distance : 0.400000
c data structure     : sparse
c
c           Graph Stats
c number of vertices  : 70
c nonisolated vertices: 70
c number of edges     : 828
c edge density        : 0.342857
c max degree          : 38
c avg degree          : 23.66
c min degree          : 8
p col 70 828
e 1 70
e 1 68
e 1 65
e 1 64
e 1 61
e 1 60
e 1 59
e 1 56
e 1 54
e 1 51
e 1 48
e 1 45
e 1 42
e 1 41
e 1 38
e 1 37
e 1 36
e 1 35
e 1 30
e 1 29
e 1 28
e 1 27
e 1 25
e 1 24
e 1 17
e 1 16
e 1 15
e 1 14
e 1 12
e 1 11
e 1 10
e 1 7
e 1 6
e 1 3
e 1 2
e 2 70
e 2 69
e 2 67
e 2 65
e 2 63
e 2 59
e 2 58
e 2 55
e 2 54
e 2 53
e 2 48
e 2 40
e 2 36
e 2 28
e 2 26
e 2 25
e 2 22
e 2 18
e 2 14
e 2 13
e 2 7
e 3 70
e 3 68
e 3 66
e 3 65
e 3 61
e 3 60
e 3 57
e 3 56
e 3 54
e 3 51
e 3 48
e 3 44
e 3 42
e 3 41
e 3 39
e 3 38
e 3 37
e 3 35
e 3 34
e 3 33
e 3 29
e 3 24
e 3 21
e 3 19
e 3 14
e 3 12
e 3 9
e 3 8
e 3 6
e 3 4
e 4 68
e 4 66
e 4 64
e 4 62
e 4 61
e 4 60
e 4 51
e 4 50
e 4 43
e 4 42
e 4 41
e 4 37
e 4 35
e 4 33
e 4 31
e 4 30
e 4 23
e 4 21
e 4 19
e 4 12
e 4 6
e 5 52
e 5 49
e 5 47
e 5 46
e 5 45
e 5 20
e 5 17
e 5 16
e 6 68
e 6 66
e 6 64
e 6 62
e 6 61
e 6 60
e 6 56
e 6 51
e 6 50
e 6 48
e 6 43
e 6 42
e 6 41
e 6 39
e 6 38
e 6 37
e 6 35
e 6 33
e 6 31
e 6 30
e 6 29
e 6 27
e 6 24
e 6 23
e 6 21
e 6 19
e 6 12
e 6 11
e 6 8
e 7 70
e 7 69
e 7 67
e 7 65
e 7 63
e 7 59
e 7 58
e 7 55
e 7 54
e 7 53
e 7 48
e 7 40
e 7 38
e 7 36
e 7 28
e 7 26
e 7 25
e 7 22
e 7 18
e 7 14
e 7 13
e 7 9
e 8 70
e 8 68
e 8 66
e 8 65
e 8 58
e 8 57
e 8 56
e 8 54
e 8 53
e 8 48
e 8 44
e 8 42
e 8 41
e 8 39
e 8 38
e 8 37
e 8 34
e 8 32
e 8 29
e 8 28
e 8 21
e 8 18
e 8 12
e 8 9
e 9 70
e 9 65
e 9 58
e 9 57
e 9 56
e 9 54
e 9 53
e 9 44
e 9 39
e 9 38
e 9 37
e 9 34
e 9 32
e 9 29
e 9 28
e 9 18
e 9 12
e 10 65
e 10 64
e 10 59
e 10 52
e 10 51
e 10 49
e 10 48
e 10 47
e 10 46
e 10 45
e 10 41
e 10 36
e 10 35
e 10 27
e 10 26
e 10 25
e 10 24
e 10 22
e 10 20
e 10 17
e 10 16
e 10 15
e 10 14
e 10 11
e 11 64
e 11 61
e 11 60
e 11 51
e 11 50
e 11 49
e 11 48
e 11 47
e 11 45
e 11 43
e 11 42
e 11 41
e 11 35
e 11 33
e 11 31
e 11 30
e 11 27
e 11 25
e 11 24
e 11 23
e 11 20
e 11 19
e 11 17
e 11 16
e 11 15
e 11 14
e 12 70
e 12 68
e 12 66
e 12 65
e 12 61
e 12 60
e 12 58
e 12 57
e 12 56
e 12 54
e 12 51
e 12 48
e 12 44
e 12 42
e 12 41
e 12 39
e 12 38
e 12 37
e 12 35
e 12 34
e 12 33
e 12 29
e 12 28
e 12 24
e 12 21
e 12 19
e 13 69
e 13 67
e 13 63
e 13 59
e 13 55
e 13 40
e 13 36
e 13 26
e 13 22
e 14 70
e 14 65
e 14 64
e 14 61
e 14 60
e 14 59
e 14 51
e 14 49
e 14 48
e 14 47
e 14 46
e 14 45
e 14 42
e 14 41
e 14 38
e 14 36
e 14 35
e 14 30
e 14 27
e 14 25
e 14 24
e 14 22
e 14 20
e 14 17
e 14 16
e 14 15
e 15 70
e 15 65
e 15 64
e 15 61
e 15 60
e 15 59
e 15 51
e 15 49
e 15 48
e 15 47
e 15 46
e 15 45
e 15 42
e 15 41
e 15 36
e 15 35
e 15 30
e 15 27
e 15 25
e 15 24
e 15 22
e 15 20
e 15 17
e 15 16
e 16 64
e 16 61
e 16 60
e 16 52
e 16 51
e 16 50
e 16 49
e 16 48
e 16 47
e 16 46
e 16 45
e 16 41
e 16 35
e 16 31
e 16 30
e 16 27
e 16 25
e 16 24
e 16 23
e 16 20
e 16 17
e 17 64
e 17 61
e 17 52
e 17 51
e 17 50
e 17 49
e 17 47
e 17 46
e 17 45
e 17 35
e 17 31
e 17 30
e 17 27
e 17 25
e 17 24
e 17 23
e 17 20
e 18 70
e 18 69
e 18 65
e 18 58
e 18 57
e 18 56
e 18 54
e 18 53
e 18 44
e 18 38
e 18 34
e 18 32
e 18 29
e 18 28
e 19 68
e 19 66
e 19 64
e 19 62
e 19 61
e 19 60
e 19 51
e 19 50
e 19 43
e 19 42
e 19 41
e 19 37
e 19 35
e 19 33
e 19 31
e 19 30
e 19 27
e 19 24
e 19 23
e 19 21
e 20 52
e 20 49
e 20 47
e 20 46
e 20 45
e 20 27
e 20 25
e 21 68
e 21 66
e 21 61
e 21 60
e 21 57
e 21 56
e 21 51
e 21 48
e 21 44
e 21 42
e 21 41
e 21 39
e 21 38
e 21 37
e 21 34
e 21 33
e 21 29
e 22 69
e 22 67
e 22 63
e 22 59
e 22 55
e 22 46
e 22 45
e 22 40
e 22 36
e 22 26
e 22 25
e 23 64
e 23 62
e 23 61
e 23 60
e 23 51
e 23 50
e 23 49
e 23 43
e 23 42
e 23 41
e 23 35
e 23 33
e 23 31
e 23 30
e 23 27
e 23 24
e 24 70
e 24 68
e 24 65
e 24 64
e 24 61
e 24 60
e 24 56
e 24 51
e 24 50
e 24 49
e 24 48
e 24 47
e 24 45
e 24 43
e 24 42
e 24 41
e 24 38
e 24 37
e 24 35
e 24 33
e 24 31
e 24 30
e 24 27
e 24 25
e 25 70
e 25 65
e 25 64
e 25 59
e 25 55
e 25 51
e 25 49
e 25 48
e 25 47
e 25 46
e 25 45
e 25 41
e 25 36
e 25 35
e 25 27
e 25 26
e 26 69
e 26 67
e 26 63
e 26 59
e 26 55
e 26 46
e 26 45
e 26 40
e 26 36
e 27 64
e 27 61
e 27 60
e 27 51
e 27 50
e 27 49
e 27 48
e 27 47
e 27 45
e 27 43
e 27 42
e 27 41
e 27 35
e 27 33
e 27 31
e 27 30
e 28 70
e 28 69
e 28 65
e 28 63
e 28 59
e 28 58
e 28 56
e 28 55
e 28 54
e 28 53
e 28 48
e 28 38
e 28 36
e 28 29
e 29 70
e 29 68
e 29 66
e 29 65
e 29 60
e 29 58
e 29 57
e 29 56
e 29 54
e 29 53
e 29 48
e 29 44
e 29 42
e 29 41
e 29 39
e 29 38
e 29 37
e 29 34
e 29 32
e 30 68
e 30 64
e 30 62
e 30 61
e 30 60
e 30 51
e 30 50
e 30 49
e 30 48
e 30 47
e 30 43
e 30 42
e 30 41
e 30 35
e 30 33
e 30 31
e 31 64
e 31 62
e 31 61
e 31 60
e 31 51
e 31 50
e 31 49
e 31 43
e 31 42
e 31 41
e 31 35
e 31 33
e 32 66
e 32 57
e 32 56
e 32 44
e 32 39
e 32 38
e 32 34
e 33 68
e 33 66
e 33 64
e 33 62
e 33 61
e 33 60
e 33 51
e 33 50
e 33 43
e 33 42
e 33 41
e 33 37
e 33 35
e 34 66
e 34 58
e 34 57
e 34 56
e 34 54
e 34 44
e 34 39
e 34 38
e 34 37
e 35 68
e 35 65
e 35 64
e 35 62
e 35 61
e 35 60
e 35 51
e 35 50
e 35 49
e 35 48
e 35 47
e 35 43
e 35 42
e 35 41
e 35 37
e 36 70
e 36 69
e 36 67
e 36 65
e 36 63
e 36 59
e 36 58
e 36 55
e 36 54
e 36 53
e 36 48
e 36 40
e 37 70
e 37 68
e 37 66
e 37 65
e 37 61
e 37 60
e 37 57
e 37 56
e 37 54
e 37 51
e 37 48
e 37 44
e 37 42
e 37 41
e 37 39
e 37 38
e 38 70
e 38 68
e 38 66
e 38 65
e 38 60
e 38 58
e 38 57
e 38 56
e 38 54
e 38 53
e 38 51
e 38 48
e 38 44
e 38 42
e 38 41
e 38 39
e 39 68
e 39 66
e 39 57
e 39 56
e 39 44
e 40 69
e 40 67
e 40 63
e 40 59
e 40 55
e 41 70
e 41 68
e 41 66
e 41 65
e 41 64
e 41 61
e 41 60
e 41 56
e 41 54
e 41 51
e 41 50
e 41 48
e 41 43
e 41 42
e 42 70
e 42 68
e 42 66
e 42 65
e 42 64
e 42 61
e 42 60
e 42 56
e 42 51
e 42 50
e 42 48
e 42 43
e 43 64
e 43 62
e 43 61
e 43 60
e 43 51
e 43 50
e 44 68
e 44 66
e 44 58
e 44 57
e 44 56
e 44 54
e 45 52
e 45 49
e 45 47
e 45 46
e 46 52
e 46 49
e 46 47
e 47 64
e 47 52
e 47 49
e 48 70
e 48 68
e 48 65
e 48 64
e 48 61
e 48 60
e 48 59
e 48 58
e 48 56
e 48 54
e 48 53
e 48 51
e 49 64
e 49 61
e 49 52
e 49 51
e 49 50
e 50 68
e 50 64
e 50 62
e 50 61
e 50 60
e 50 51
e 51 68
e 51 65
e 51 64
e 51 61
e 51 60
e 51 56
e 53 70
e 53 69
e 53 65
e 53 63
e 53 59
e 53 58
e 53 56
e 53 55
e 53 54
e 54 70
e 54 69
e 54 68
e 54 65
e 54 59
e 54 58
e 54 56
e 54 55
e 55 70
e 55 69
e 55 67
e 55 65
e 55 63
e 55 59
e 55 58
e 56 70
e 56 68
e 56 66
e 56 65
e 56 60
e 56 58
e 56 57
e 57 68
e 57 66
e 58 70
e 58 69
e 58 65
e 58 59
e 59 70
e 59 69
e 59 67
e 59 65
e 59 63
e 60 68
e 60 66
e 60 65
e 60 64
e 60 62
e 60 61
e 61 68
e 61 64
e 61 62
e 62 64
e 63 70
e 63 69
e 63 67
e 65 70
e 65 69
e 65 68
e 66 68
e 67 69
e 68 70
e 69 70
